% Número total de personas
n = 150;

% Número de opiniones posibles
m = 3;

% Distribución inicial de personas por opinión
p = [78, 5, 67];

% Valores de las opiniones
v = [153, 398, 632];

% Costos extras al mover a opiniones vacías
ce = [1771, 6604, 6070];

% Matriz de costos de mover de una opinión a otra
C = array2d(1..3, 1..3,
  [
    0,    5017,    5297,
    591,    0,    1914,
    3372,    1728,    0
  ]);

% Costo total máximo permitido
C_max = 18370;

% Número máximo de movimientos permitidos
M_max = 9;
